n_res = 5;
n_events = 52;
n_prec = 96;
source = 1;
sink = 52;
min_lvl = [-3, -13, -9, -5, 2];
max_lvl = [9, 1, 0, 5, 8];
rr = [| 0, 0, 0, 0, 1, 0, -2, -1, 1, 2, 1, -2, 1, 0, -2, 0, -1, 0, 1, 1, -2, 2, 2, 1, -1, 1, -2, 0, 0, 0, -1, 2, -2, 1, 0, 0, 2, 0, 0, 0, -1, 0, 0, 1, 0, -2, 0, 2, 2, 2, 2, 0
      | 0, 0, 0, -1, 2, -1, 0, 0, -2, -1, 2, -2, -2, 0, 0, 0, -1, -2, 0, 0, 0, 0, 1, -1, 0, 1, 1, 0, 1, -1, 0, -2, 0, 0, -2, 1, 0, 2, 0, -1, -1, -2, -2, 0, -2, 2, -1, 2, -2, 0, 1, 0
      | 0, 0, 0, 1, 0, -1, -2, -1, -2, 2, -2, 0, 2, 0, -1, 0, 2, 1, 0, -2, 0, 0, 2, 0, 0, 0, 0, 0, 1, 0, 0, 0, -2, -1, 0, -1, 0, 0, 2, -2, 0, -2, 1, 0, 0, 2, -1, 0, 0, 0, -1, 0
      | 0, -1, -1, 0, 0, -1, 0, -1, 1, -2, 0, 0, -1, 1, -1, 2, 2, 0, 0, 0, 0, 0, -1, 1, 2, 0, 0, 1, -2, 2, 0, -2, 0, -2, 0, 0, -2, 1, 2, 0, 1, 2, 2, 0, 0, 0, 1, -1, -2, 0, -1, 0
      | 0, 0, -1, 2, 2, 0, 2, 0, 1, 0, 1, 0, -1, 0, 1, -1, -1, 2, 0, 1, -1, 2, -1, 0, 0, -2, 2, 2, 1, 0, 0, 1, 0, -2, 0, 0, 0, -2, 1, -1, 1, 2, 0, -1, -1, 1, -2, -2, 0, 0, 1, 0 |];
prec = [| 1, 0, 7
        | 1, 0, 2
        | 1, 0, 3
        | 1, 0, 4
        | 1, 0, 6
        | 1, 0, 5
        | 2, 9, 50
        | 2, 0, 22
        | 3, 0, 20
        | 3, 2, 21
        | 4, 19, 37
        | 5, -6, 10
        | 5, 21, 27
        | 6, -1, 20
        | 6, 5, 50
        | 6, 1, 19
        | 6, 3, 42
        | 7, -1, 15
        | 8, 1, 49
        | 9, -5, 47
        | 9, 7, 52
        | 10, 14, 48
        | 11, -4, 35
        | 11, -4, 36
        | 11, -5, 47
        | 12, 4, 29
        | 13, 2, 25
        | 14, 6, 18
        | 14, 6, 24
        | 14, 6, 8
        | 14, 2, 36
        | 15, -5, 16
        | 16, 3, 8
        | 16, 5, 35
        | 16, -6, 49
        | 17, -4, 45
        | 17, 6, 39
        | 18, 2, 40
        | 18, 5, 35
        | 18, -199, 11
        | 19, 0, 20
        | 19, 1, 50
        | 20, 25, 50
        | 21, 30, 13
        | 22, 19, 14
        | 23, 0, 46
        | 24, 15, 11
        | 25, 10, 23
        | 25, 8, 33
        | 26, -1, 48
        | 26, 5, 10
        | 27, -1, 41
        | 27, 6, 48
        | 27, -1, 26
        | 28, 6, 20
        | 28, 5, 42
        | 28, 6, 12
        | 29, -1, 30
        | 29, 12, 39
        | 30, 12, 43
        | 31, 10, 26
        | 32, 13, 45
        | 33, 10, 23
        | 34, 24, 9
        | 34, 11, 51
        | 35, 8, 8
        | 35, -92, 17
        | 35, 3, 49
        | 35, -129, 39
        | 36, -4, 47
        | 36, 13, 28
        | 36, 8, 20
        | 37, 4, 34
        | 37, 5, 51
        | 38, 5, 17
        | 39, 0, 35
        | 39, 7, 18
        | 40, 0, 32
        | 40, 9, 45
        | 41, 0, 48
        | 41, 1, 44
        | 42, 0, 19
        | 43, 13, 38
        | 44, -6, 31
        | 44, 2, 10
        | 45, -82, 32
        | 45, 7, 52
        | 45, -190, 11
        | 46, 10, 52
        | 47, 1, 52
        | 47, -162, 14
        | 48, 9, 52
        | 49, -107, 7
        | 49, 6, 52
        | 50, 3, 52
        | 51, 9, 52 |];
